 200 47 
 19 22 67 21 94 58 75 29 13 14 7 19 
 92 92 47 54 17 43 21 12 58 55 45 78 
 68 85 33 60 42 40 100 98 56 31 52 12 
 60 100 35 66 67 11 51 14 98 92 70 
 3 
 17 18 41 
 12 
 4 5 7 10 11 19 28 32 35 36 37 38 
 32 
 2 3 5 6 7 8 9 10 11 12 15 19 
 21 22 23 25 28 29 30 31 33 34 35 36 
 37 38 39 41 42 44 45 47 
 12 
 3 6 12 16 20 22 28 29 31 33 41 43 
 31 
 1 4 5 7 8 10 11 12 13 18 20 21 
 22 24 28 29 30 32 33 34 35 36 37 38 
 39 40 41 42 43 45 46 
 28 
 2 3 4 5 8 9 11 15 20 21 22 25 
 27 28 29 30 31 32 33 34 36 40 41 43 
 44 45 46 47 
 28 
 4 5 7 11 12 13 15 16 17 18 19 20 
 22 23 24 28 30 31 32 34 35 36 38 39 
 40 42 46 47 
 15 
 7 11 17 22 23 24 28 30 32 35 37 38 
 41 43 46 
 39 
 1 2 3 4 5 6 8 9 10 11 12 13 
 15 16 18 19 20 21 22 24 25 26 27 28 
 29 31 32 34 35 36 37 39 40 41 42 43 
 44 45 46 
 40 
 2 3 4 5 6 7 8 9 10 11 12 13 
 14 15 16 17 18 21 22 23 24 25 26 28 
 29 30 31 32 33 34 36 37 38 39 41 42 
 43 45 46 47 
 34 
 2 4 6 7 8 9 10 11 12 13 15 16 
 18 19 20 21 22 26 27 28 29 30 32 34 
 35 36 37 38 39 40 41 44 46 47 
 27 
 3 5 6 7 9 10 13 14 15 16 17 18 
 20 22 23 26 27 29 30 33 34 37 40 42 
 43 44 45 
 19 
 1 2 3 4 8 9 12 13 14 22 23 24 
 32 35 38 41 43 45 46 
 42 
 1 2 3 4 5 6 7 8 9 10 11 12 
 13 14 16 17 18 19 20 21 22 23 25 26 
 27 28 30 31 32 34 35 36 37 38 39 40 
 41 42 43 44 46 47 
 44 
 1 2 3 4 5 6 7 8 9 10 11 12 
 13 14 15 16 18 20 21 22 23 24 25 26 
 27 28 29 30 31 32 33 34 35 36 37 39 
 40 41 42 43 44 45 46 47 
 2 
 35 47 
 36 
 1 2 5 6 7 8 9 10 11 12 13 14 
 16 17 18 19 20 22 24 25 27 28 29 30 
 31 32 33 35 36 37 38 40 41 42 44 46 
 27 
 3 5 6 8 9 10 13 14 15 17 18 21 
 22 24 25 26 27 29 33 35 38 39 40 42 
 44 46 47 
 29 
 1 2 3 5 6 7 8 9 10 12 13 14 
 15 17 20 24 25 26 28 29 31 32 33 34 
 36 37 41 42 43 
 19 
 1 4 7 8 9 14 18 23 24 25 26 30 
 31 34 38 41 42 43 44 
 25 
 1 6 7 10 14 16 18 20 22 23 25 28 
 29 30 31 32 35 36 37 39 40 42 44 46 
 47 
 6 
 2 13 18 29 34 35 
 47 
 1 2 3 4 5 6 7 8 9 10 11 12 
 13 14 15 16 17 18 19 20 21 22 23 24 
 25 26 27 28 29 30 31 32 33 34 35 36 
 37 38 39 40 41 42 43 44 45 46 47 
 19 
 3 4 5 6 8 10 11 12 16 20 21 22 
 23 29 38 39 42 43 46 
 20 
 1 2 3 4 6 7 10 15 17 18 20 21 
 23 24 33 34 35 43 44 45 
 35 
 1 3 4 5 6 7 9 11 12 13 14 15 
 16 17 18 19 21 22 23 24 25 26 27 29 
 30 31 32 33 34 36 37 38 40 41 45 
 31 
 2 6 7 9 10 11 13 14 15 16 18 19 
 20 21 22 23 25 26 27 28 29 34 35 36 
 40 41 42 44 45 46 47 
 9 
 1 3 5 8 17 26 35 36 47 
 39 
 1 3 4 5 6 9 10 11 13 14 15 16 
 18 20 22 23 24 25 26 27 28 29 30 31 
 32 33 34 35 37 38 39 40 41 42 43 44 
 45 46 47 
 30 
 2 3 5 7 8 10 11 13 14 15 18 21 
 22 25 26 27 28 30 33 34 35 36 37 39 
 41 42 43 44 45 46 
 20 
 3 6 7 10 13 14 15 16 17 19 21 24 
 25 28 32 34 36 40 41 45 
 12 
 1 4 5 15 17 20 21 23 33 36 38 46 
 28 
 2 4 8 10 11 13 15 16 17 19 23 24 
 27 28 29 30 31 32 34 36 37 38 40 42 
 43 44 46 47 
 41 
 1 2 3 4 5 6 7 8 9 10 11 13 
 14 16 17 19 20 21 22 23 24 25 26 27 
 28 30 31 32 33 34 35 36 38 40 41 42 
 43 44 45 46 47 
 17 
 5 6 8 9 15 17 18 20 24 34 35 37 
 39 40 43 45 47 
 13 
 1 2 8 12 20 24 25 30 34 37 42 44 
 46 
 16 
 1 7 15 17 18 21 30 31 32 36 37 38 
 41 42 46 47 
 7 
 1 5 25 28 33 37 45 
 37 
 1 2 3 4 5 6 7 8 11 12 13 14 
 15 17 19 20 21 22 24 26 27 29 31 32 
 33 34 35 36 37 39 40 42 43 44 45 46 
 47 
 19 
 3 4 5 7 8 12 17 18 19 24 25 26 
 28 30 32 38 40 44 47 
 4 
 5 9 10 34 
 26 
 2 4 5 6 7 8 9 11 12 13 15 16 
 20 22 23 24 27 33 35 37 38 39 40 42 
 44 45 
 35 
 1 2 6 7 8 9 10 11 12 13 16 19 
 20 21 22 23 24 25 26 27 28 29 31 32 
 33 35 36 37 38 39 40 41 43 45 46 
 41 
 1 2 3 4 5 6 7 8 9 10 11 13 
 14 15 16 18 19 20 21 22 24 25 27 28 
 29 30 32 33 34 35 36 37 38 39 40 41 
 42 44 45 46 47 
 8 
 12 14 18 20 23 36 40 45 
 25 
 1 2 3 4 6 7 8 10 12 13 14 15 
 17 21 22 23 24 26 27 30 31 33 41 42 
 44 
 28 
 1 2 4 5 6 8 9 10 11 12 14 16 
 18 19 21 22 23 25 26 27 29 31 34 39 
 40 42 44 46 
 45 
 1 2 3 4 5 6 7 8 9 11 12 13 
 14 15 16 17 18 19 20 21 22 23 24 25 
 26 27 28 29 30 31 32 33 34 35 36 37 
 38 39 40 41 43 44 45 46 47 
 35 
 1 4 5 6 7 8 9 14 15 16 17 18 
 19 21 22 23 25 26 27 29 30 31 32 33 
 34 37 38 39 40 41 42 43 44 45 47 
 11 
 6 9 11 27 35 37 38 39 42 43 46 
 32 
 1 3 4 5 8 10 12 14 16 17 18 19 
 20 21 22 24 25 26 27 29 30 31 32 33 
 34 36 37 38 44 45 46 47 
 22 
 1 2 5 6 9 10 11 23 24 25 29 32 
 33 37 39 40 41 42 43 45 46 47 
 6 
 19 22 29 31 32 41 
 8 
 6 17 23 25 40 42 46 47 
 30 
 1 2 4 7 8 9 10 11 12 13 15 16 
 17 18 19 20 22 24 29 31 32 34 35 36 
 37 40 42 44 45 46 
 37 
 1 2 3 5 6 7 8 12 13 14 15 16 
 17 18 19 20 21 23 24 25 26 29 30 31 
 33 35 36 37 39 40 41 42 43 44 45 46 
 47 
 20 
 1 4 5 6 7 9 11 12 18 20 22 24 
 26 29 31 32 34 35 41 46 
 33 
 1 3 4 5 6 7 9 10 12 13 14 16 
 17 18 19 21 23 28 29 30 32 33 35 36 
 38 39 40 41 42 43 45 46 47 
 31 
 1 2 3 4 6 8 9 10 12 13 14 17 
 19 21 22 23 24 27 29 30 31 32 35 38 
 39 40 41 43 45 46 47 
 25 
 1 3 5 8 9 10 11 12 13 15 16 20 
 21 24 26 29 30 31 32 36 40 43 44 46 
 47 
 10 
 3 5 7 17 24 28 36 37 40 41 
 44 
 1 2 3 4 5 6 7 9 10 11 12 13 
 14 15 16 17 18 20 21 22 23 24 25 26 
 27 28 29 30 31 32 33 34 35 36 37 38 
 39 41 42 43 44 45 46 47 
 39 
 2 3 4 7 8 9 10 11 12 13 14 15 
 16 17 18 20 22 23 24 25 26 27 28 29 
 30 32 33 34 36 37 38 39 40 41 42 44 
 45 46 47 
 17 
 2 3 9 12 15 16 19 20 23 25 28 39 
 40 41 45 46 47 
 21 
 1 3 8 9 12 14 17 21 23 26 27 29 
 31 32 33 35 38 39 41 42 47 
 9 
 6 9 12 14 21 27 32 37 39 
 18 
 1 3 4 8 9 10 12 14 15 18 20 22 
 27 30 38 39 43 47 
 19 
 1 3 4 7 9 11 13 16 17 22 23 27 
 31 34 36 37 39 43 45 
 44 
 1 2 3 4 5 6 7 8 9 10 11 12 
 13 14 15 16 17 18 19 20 21 23 25 26 
 27 28 29 31 32 33 34 35 36 37 38 39 
 40 41 42 43 44 45 46 47 
 43 
 1 2 4 5 6 8 9 10 11 12 13 14 
 15 16 18 19 20 21 22 23 24 25 26 27 
 28 29 30 31 32 33 34 35 36 37 38 39 
 40 41 42 43 44 46 47 
 25 
 2 3 7 9 10 11 13 14 16 18 19 22 
 26 28 29 31 32 33 36 37 39 40 41 42 
 45 
 5 
 6 22 31 32 39 
 42 
 1 2 3 4 5 6 7 8 9 10 11 12 
 13 14 15 17 18 20 21 22 24 25 26 27 
 28 29 30 31 32 33 34 36 37 38 39 40 
 41 42 44 45 46 47 
 45 
 1 2 3 4 5 6 7 8 9 10 11 12 
 13 14 15 16 17 18 19 20 21 22 23 25 
 26 27 29 30 31 32 33 34 35 36 37 38 
 39 40 41 42 43 44 45 46 47 
 20 
 4 5 8 10 11 12 16 17 24 27 29 30 
 36 38 39 41 42 43 44 46 
 9 
 6 7 12 26 28 29 34 39 47 
 33 
 1 3 5 6 7 9 10 11 15 16 17 18 
 19 20 21 22 23 24 29 31 32 33 34 35 
 36 37 38 40 41 42 44 46 47 
 27 
 1 3 4 5 6 10 11 16 17 18 19 20 
 23 24 25 26 27 29 31 33 37 38 39 40 
 42 43 46 
 41 
 1 2 3 4 5 6 7 8 9 10 11 12 
 13 14 15 16 17 18 19 20 21 22 23 24 
 25 26 27 28 29 30 31 32 33 34 35 36 
 37 41 44 45 47 
 17 
 4 5 6 12 15 16 17 18 20 24 27 33 
 37 38 41 45 46 
 11 
 4 5 9 11 12 13 14 26 34 43 47 
 32 
 1 2 4 5 6 7 8 10 11 14 15 17 
 19 20 22 23 25 26 27 28 29 31 32 33 
 35 36 37 40 41 44 45 46 
 11 
 3 6 8 18 19 29 39 43 44 45 47 
 2 
 9 27 
 15 
 3 9 15 16 19 23 29 33 34 35 36 37 
 40 41 43 
 43 
 1 2 3 4 5 7 8 10 11 12 13 14 
 15 16 17 18 19 20 21 22 23 24 25 26 
 27 28 29 30 31 32 34 35 36 37 38 39 
 41 42 43 44 45 46 47 
 37 
 3 4 5 6 7 8 9 11 13 14 15 16 
 18 19 20 21 22 26 27 28 29 30 31 32 
 33 34 35 37 38 39 40 41 42 43 44 46 
 47 
 43 
 1 2 3 4 5 6 7 8 9 10 11 12 
 13 14 15 16 17 19 20 21 22 23 24 25 
 26 27 28 29 30 31 32 33 35 36 37 38 
 40 41 42 44 45 46 47 
 40 
 1 2 3 4 6 7 8 9 11 12 13 14 
 15 17 18 19 20 22 23 24 25 27 28 29 
 31 32 33 34 35 36 37 38 39 41 42 43 
 44 45 46 47 
 41 
 1 2 3 4 6 7 9 10 11 12 13 14 
 15 18 19 20 21 23 24 25 26 27 29 30 
 31 32 33 34 35 36 37 38 39 40 41 42 
 43 44 45 46 47 
 39 
 1 2 5 6 7 8 9 11 12 13 15 16 
 17 18 19 20 22 24 25 26 27 28 29 30 
 31 32 33 34 35 36 37 38 39 40 42 43 
 44 46 47 
 12 
 3 10 14 15 17 24 25 29 33 38 41 43 
 34 
 1 2 3 4 5 7 8 9 11 12 13 14 
 15 17 19 21 22 23 24 28 29 30 32 33 
 34 35 36 37 38 39 41 42 45 47 
 9 
 4 17 20 21 23 25 34 39 44 
 21 
 1 4 5 6 12 17 18 19 22 23 24 25 
 26 27 28 31 33 38 40 41 44 
 38 
 2 4 6 7 8 9 10 11 12 13 14 15 
 16 18 20 21 22 24 25 26 27 28 29 30 
 32 33 34 35 37 38 39 41 42 43 44 45 
 46 47 
 45 
 1 2 3 4 5 6 7 8 9 10 11 12 
 13 14 15 16 17 18 19 20 22 23 24 25 
 26 27 28 29 30 31 32 33 34 35 36 37 
 38 39 40 41 42 44 45 46 47 
 27 
 1 2 3 4 5 8 13 14 16 18 20 23 
 25 27 32 33 34 35 36 37 38 39 40 41 
 42 44 45 
 22 
 3 4 7 8 10 14 17 19 22 23 24 27 
 28 31 32 33 37 40 43 44 46 47 
 28 
 1 2 3 6 8 9 10 11 14 15 16 17 
 18 19 22 24 25 27 32 34 35 36 37 38 
 41 43 44 45 
 5 
 8 14 15 18 41 
 32 
 2 3 4 8 9 11 12 13 15 16 17 18 
 20 23 24 25 26 27 28 31 32 33 34 35 
 37 38 41 42 44 45 46 47 
 11 
 5 10 13 18 24 31 33 38 39 40 47 
 39 
 1 2 5 6 7 8 9 10 11 12 15 16 
 17 18 19 20 21 22 23 24 25 26 28 29 
 30 31 32 33 34 36 38 39 40 41 43 44 
 45 46 47 
 43 
 1 2 3 4 5 6 7 8 9 10 11 12 
 13 14 15 16 17 18 19 20 21 22 25 26 
 27 28 29 30 31 32 33 34 35 36 37 38 
 40 41 42 43 44 45 47 
 11 
 2 10 15 17 18 21 22 32 33 43 46 
 31 
 1 2 3 6 7 8 9 12 13 15 16 17 
 18 20 21 22 23 25 26 27 28 29 30 32 
 37 38 41 42 44 45 46 
 43 
 1 2 3 4 5 6 7 8 9 10 11 12 
 13 14 15 16 17 18 19 21 22 23 24 25 
 26 28 29 31 32 33 34 35 36 37 38 39 
 40 41 43 44 45 46 47 
 22 
 2 6 8 10 11 14 15 18 20 24 27 29 
 30 31 33 34 36 38 41 42 45 46 
 27 
 2 3 6 7 8 9 12 14 15 16 18 20 
 23 24 26 28 31 33 34 36 37 38 39 41 
 42 43 47 
 11 
 6 12 25 29 32 34 35 37 41 42 45 
 22 
 4 6 8 10 11 13 15 18 19 22 24 25 
 26 29 32 33 34 35 37 39 41 43 
 22 
 1 4 5 6 7 8 10 11 13 14 15 18 
 20 27 33 36 37 38 39 41 43 46 
 13 
 2 4 8 9 10 11 23 28 31 33 39 40 
 45 
 45 
 1 2 3 4 5 6 7 8 9 10 11 12 
 13 15 16 17 18 19 20 21 22 23 24 25 
 27 28 29 30 31 32 33 34 35 36 37 38 
 39 40 41 42 43 44 45 46 47 
 33 
 1 3 4 5 6 8 9 11 12 13 14 16 
 17 18 19 21 23 24 25 27 28 29 30 32 
 36 38 40 41 43 44 45 46 47 
 27 
 2 3 6 7 9 10 12 14 15 16 17 20 
 21 22 23 24 25 28 35 36 38 40 42 43 
 44 45 46 
 25 
 4 5 6 7 10 11 13 15 17 19 20 24 
 27 28 29 30 31 32 33 37 38 39 41 45 
 47 
 20 
 2 4 7 10 11 12 13 14 19 20 21 25 
 26 27 30 32 40 41 43 44 
 3 
 18 29 32 
 34 
 1 2 3 5 6 8 9 10 11 14 17 18 
 19 20 22 23 25 27 28 29 30 31 32 33 
 34 35 36 38 40 41 44 45 46 47 
 47 
 1 2 3 4 5 6 7 8 9 10 11 12 
 13 14 15 16 17 18 19 20 21 22 23 24 
 25 26 27 28 29 30 31 32 33 34 35 36 
 37 38 39 40 41 42 43 44 45 46 47 
 17 
 6 11 15 17 21 22 25 26 28 29 30 31 
 32 34 36 37 43 
 40 
 2 3 5 7 9 10 11 12 13 15 16 17 
 18 19 20 21 22 23 25 26 27 28 29 30 
 31 32 33 34 35 36 37 39 40 41 42 43 
 44 45 46 47 
 18 
 2 5 8 9 11 12 16 17 19 23 27 29 
 35 38 39 42 43 46 
 29 
 2 3 6 8 10 11 16 18 21 22 23 27 
 28 29 30 31 32 33 34 35 37 38 39 40 
 41 43 44 45 46 
 10 
 3 17 20 24 28 29 39 41 42 46 
 41 
 1 3 4 5 6 7 8 9 10 11 12 13 
 15 16 17 18 20 21 22 23 24 25 26 27 
 28 29 30 31 32 33 34 35 36 37 40 41 
 43 44 45 46 47 
 27 
 1 3 4 5 6 7 8 9 11 12 13 18 
 20 24 26 28 31 32 36 37 38 39 40 42 
 43 45 46 
 40 
 1 2 3 4 5 7 8 9 10 11 13 14 
 15 16 17 18 19 20 21 23 25 26 27 29 
 31 32 34 35 36 37 38 39 40 41 42 43 
 44 45 46 47 
 45 
 1 2 3 4 5 6 7 8 9 10 11 12 
 13 14 15 16 18 19 20 21 22 23 24 25 
 26 27 28 29 30 31 32 34 35 36 37 38 
 39 40 41 42 43 44 45 46 47 
 19 
 4 5 7 8 9 13 14 21 23 25 27 33 
 36 37 39 40 42 43 46 
 27 
 1 4 5 6 7 8 10 12 14 17 18 19 
 21 26 27 29 31 32 34 35 36 38 40 42 
 43 44 47 
 21 
 2 6 11 14 19 20 21 23 24 27 32 33 
 34 35 36 39 40 42 43 44 46 
 22 
 1 2 5 6 7 16 17 19 20 22 23 26 
 28 29 30 33 34 37 39 42 44 47 
 33 
 1 3 7 8 9 11 13 14 15 17 18 19 
 21 22 23 24 26 27 29 30 31 32 34 35 
 36 38 39 41 42 43 44 45 46 
 46 
 1 2 3 4 5 6 7 8 9 10 11 12 
 13 14 15 16 17 18 19 20 21 22 23 24 
 25 26 27 28 30 31 32 33 34 35 36 37 
 38 39 40 41 42 43 44 45 46 47 
 7 
 15 18 21 22 23 33 39 
 25 
 5 6 7 10 11 12 13 14 15 18 22 25 
 29 31 33 34 35 36 38 39 41 43 45 46 
 47 
 4 
 4 7 11 19 
 46 
 1 2 3 4 5 6 7 8 9 11 12 13 
 14 15 16 17 18 19 20 21 22 23 24 25 
 26 27 28 29 30 31 32 33 34 35 36 37 
 38 39 40 41 42 43 44 45 46 47 
 3 
 14 37 40 
 30 
 4 6 8 10 11 12 13 14 16 18 19 20 
 21 23 25 27 28 30 32 33 35 37 38 40 
 41 42 43 45 46 47 
 41 
 1 2 3 4 5 6 7 8 10 11 13 14 
 15 16 17 18 21 22 23 24 26 28 29 30 
 31 32 33 34 35 36 37 38 39 40 41 42 
 43 44 45 46 47 
 12 
 3 6 13 16 18 20 26 29 33 34 35 42 
 28 
 4 5 7 9 10 11 13 17 18 19 21 25 
 27 28 29 30 31 32 35 36 37 39 40 41 
 42 43 46 47 
 46 
 1 2 3 4 5 6 7 8 9 10 11 12 
 13 14 15 16 17 18 19 20 21 22 23 24 
 25 26 27 28 29 30 31 32 33 34 35 36 
 37 38 39 40 41 43 44 45 46 47 
 42 
 1 2 3 4 5 6 7 8 9 10 11 12 
 13 14 15 16 17 18 20 21 22 23 24 25 
 26 28 29 30 31 32 33 34 37 38 39 40 
 41 42 43 45 46 47 
 42 
 1 2 3 4 5 6 7 9 10 11 12 13 
 14 15 16 17 20 21 22 23 24 25 26 27 
 28 29 30 31 33 34 35 36 37 38 39 40 
 42 43 44 45 46 47 
 16 
 3 5 6 7 8 12 14 17 26 28 34 39 
 41 42 43 45 
 31 
 1 2 5 6 7 10 12 13 14 15 16 19 
 20 21 22 23 24 25 28 29 31 32 33 34 
 35 39 40 42 44 45 46 
 29 
 1 4 5 7 8 9 10 11 12 14 16 17 
 18 19 23 24 26 27 29 30 31 35 36 37 
 40 42 45 46 47 
 33 
 1 2 3 4 5 6 9 12 13 15 16 18 
 20 23 24 25 26 27 28 29 30 31 32 33 
 34 35 37 39 40 41 42 46 47 
 29 
 1 2 5 6 7 9 10 11 12 15 18 19 
 20 21 23 24 26 27 29 32 34 35 37 38 
 40 41 42 45 47 
 22 
 4 7 9 10 12 15 20 22 23 25 27 28 
 29 33 34 36 37 38 40 41 43 45 
 47 
 1 2 3 4 5 6 7 8 9 10 11 12 
 13 14 15 16 17 18 19 20 21 22 23 24 
 25 26 27 28 29 30 31 32 33 34 35 36 
 37 38 39 40 41 42 43 44 45 46 47 
 18 
 1 2 6 8 10 13 15 16 18 19 21 23 
 25 27 34 36 45 46 
 32 
 1 2 4 5 6 9 10 11 14 15 17 18 
 19 21 23 25 26 27 28 29 30 31 32 33 
 34 35 37 39 41 43 46 47 
 21 
 1 6 7 10 11 12 13 15 18 20 25 26 
 28 29 34 35 36 37 39 40 43 
 39 
 1 2 3 4 5 6 7 9 10 11 12 13 
 14 15 16 18 19 20 24 25 27 28 29 30 
 31 32 34 35 36 37 38 39 40 41 42 43 
 45 46 47 
 22 
 3 5 9 11 13 16 18 20 22 23 24 27 
 28 29 31 36 37 40 42 43 45 47 
 11 
 1 8 11 18 20 27 35 36 37 39 40 
 4 
 3 9 36 44 
 33 
 2 3 5 6 10 13 14 15 17 19 20 21 
 22 23 24 26 27 28 29 30 32 33 34 35 
 36 37 41 42 43 44 45 46 47 
 40 
 1 2 3 4 6 7 9 10 11 12 13 14 
 15 16 17 18 19 20 21 22 23 24 25 26 
 27 28 29 30 33 35 36 38 40 41 42 43 
 44 45 46 47 
 46 
 1 2 3 4 5 6 7 8 9 10 11 12 
 13 14 16 17 18 19 20 21 22 23 24 25 
 26 27 28 29 30 31 32 33 34 35 36 37 
 38 39 40 41 42 43 44 45 46 47 
 12 
 4 5 8 9 14 15 20 30 33 36 40 44 
 5 
 19 20 26 34 42 
 44 
 2 3 4 5 6 7 8 9 10 11 12 13 
 14 15 16 18 19 20 21 22 23 24 25 26 
 27 28 29 30 31 32 34 35 36 37 38 39 
 40 41 42 43 44 45 46 47 
 28 
 2 3 4 5 12 13 14 16 18 19 22 23 
 26 27 29 32 33 34 35 36 38 39 40 41 
 43 44 46 47 
 22 
 2 3 7 8 9 12 13 16 17 18 24 25 
 32 33 35 36 37 38 40 41 43 46 
 33 
 3 5 6 8 9 10 11 12 13 15 18 19 
 21 23 24 25 27 29 30 31 32 33 35 36 
 38 39 40 42 43 44 45 46 47 
 22 
 2 3 5 7 10 11 12 14 20 26 28 29 
 31 33 34 35 36 38 39 40 42 44 
 6 
 5 10 12 14 35 45 
 28 
 1 2 3 4 5 6 7 8 9 11 12 13 
 14 18 23 26 29 30 31 32 33 34 35 36 
 37 38 43 45 
 10 
 1 4 10 16 19 23 24 33 39 42 
 29 
 1 3 4 5 6 8 9 11 12 13 16 17 
 19 21 22 23 25 27 28 31 34 35 37 38 
 39 41 45 46 47 
 9 
 3 15 23 26 34 38 40 43 46 
 5 
 13 18 21 29 30 
 34 
 2 4 6 7 10 13 14 15 16 17 18 20 
 21 22 24 25 26 27 28 29 30 33 34 35 
 36 37 38 40 41 42 43 45 46 47 
 47 
 1 2 3 4 5 6 7 8 9 10 11 12 
 13 14 15 16 17 18 19 20 21 22 23 24 
 25 26 27 28 29 30 31 32 33 34 35 36 
 37 38 39 40 41 42 43 44 45 46 47 
 37 
 3 4 5 6 7 8 9 11 12 13 15 16 
 17 19 20 21 23 24 25 26 27 28 29 30 
 32 33 34 35 36 37 39 40 41 43 45 46 
 47 
 39 
 1 2 3 4 5 6 7 8 9 10 12 13 
 14 15 16 17 20 22 23 24 25 26 27 28 
 29 30 31 32 34 36 38 40 41 42 43 44 
 45 46 47 
 36 
 1 3 4 5 6 7 8 9 10 12 13 14 
 15 16 18 19 20 22 23 25 27 28 31 33 
 34 35 36 37 38 39 42 43 44 45 46 47 
 27 
 1 3 4 5 6 7 8 10 11 15 20 21 
 23 24 26 27 29 30 32 33 34 35 36 38 
 43 45 47 
 25 
 1 4 7 8 12 14 15 16 18 20 22 25 
 26 27 28 30 31 32 33 34 35 38 40 44 
 46 
 25 
 4 7 8 9 11 15 16 17 18 19 21 24 
 25 26 28 29 30 33 36 37 38 40 42 45 
 46 
 45 
 1 2 3 4 5 6 7 8 9 10 11 12 
 13 14 15 16 17 18 19 20 21 22 23 24 
 25 26 27 28 30 31 32 33 35 36 37 38 
 39 40 41 42 43 44 45 46 47 
 42 
 1 3 4 5 6 7 8 9 10 11 12 13 
 14 15 16 17 18 19 20 21 22 25 26 27 
 28 29 30 32 33 34 35 36 37 38 39 40 
 41 43 44 45 46 47 
 13 
 4 16 18 20 23 26 30 33 36 37 44 46 
 47 
 41 
 1 3 4 5 6 7 8 9 10 11 13 14 
 15 16 18 20 21 22 23 24 25 26 28 29 
 30 31 32 33 34 35 36 38 39 40 41 42 
 43 44 45 46 47 
 42 
 1 2 3 4 5 6 8 9 10 11 12 13 
 14 15 16 17 18 19 20 21 22 23 25 26 
 27 28 29 30 31 32 33 34 35 36 38 39 
 40 43 44 45 46 47 
 6 
 2 32 36 39 41 43 
 35 
 1 2 3 4 6 7 8 9 11 13 15 16 
 17 18 19 20 22 23 24 27 28 29 30 32 
 33 36 37 38 40 41 42 43 45 46 47 
 35 
 1 2 4 5 6 7 8 9 10 11 14 15 
 16 17 18 20 22 25 26 27 28 30 31 32 
 33 35 37 38 39 40 41 43 45 46 47 
 19 
 3 6 7 9 10 12 14 15 17 18 23 25 
 33 34 35 38 39 46 47 
 46 
 1 2 3 4 5 6 7 8 9 10 11 12 
 13 15 16 17 18 19 20 21 22 23 24 25 
 26 27 28 29 30 31 32 33 34 35 36 37 
 38 39 40 41 42 43 44 45 46 47 
 16 
 4 10 11 15 20 23 27 29 31 33 35 36 
 38 40 42 45 
 28 
 1 2 4 5 7 9 10 13 15 18 20 21 
 22 24 25 26 27 29 33 36 37 39 40 42 
 43 44 45 46 
 8 
 4 16 17 18 19 22 27 36 
 